; benchmark generated from python API
(set-info :status unknown)
(declare-fun L_1 () Real)
(declare-fun S_1 () Real)
(declare-fun A_1 () Real)
(declare-fun A_4 () Real)
(declare-fun L_3 () Real)
(declare-fun S_4 () Real)
(declare-fun L_0 () Real)
(declare-fun S_0 () Real)
(declare-fun A_0 () Real)
(declare-fun A_3 () Real)
(declare-fun L_2 () Real)
(declare-fun A_2 () Real)
(declare-fun S_2 () Real)
(declare-fun S_3 () Real)
(assert
 (let (($x34 (>= L_0 0.0)))
 (let (($x40839 (<= (+ (* (/ 2.0 3.0) S_4) L_3 (* (- 1.0) A_3) (* (/ 1.0 3.0) S_1)) (- 5.0))))
 (let ((?x368 (* (- 1.0) A_3)))
 (let ((?x3786 (* (/ 1.0 2.0) S_4)))
 (let ((?x4127 (* (- (/ 1.0 2.0)) L_2)))
 (let ((?x5120 (* (/ 1.0 2.0) A_2)))
 (let (($x37696 (<= (+ ?x5120 ?x4127 ?x3786 L_3 ?x368) (- 5.0))))
 (let (($x71 (= L_3 L_2)))
 (let ((?x238 (* (- 1.0) L_1)))
 (let ((?x2686 (+ L_3 ?x368 A_1 ?x238)))
 (let (($x38338 (<= ?x2686 (- 15.0))))
 (let (($x37773 (<= (+ A_2 (* (- 1.0) L_2) L_3 ?x368) (- 10.0))))
 (let (($x67492 (or $x71 $x37773 $x38338 (not (<= (- 5.0) (+ (* (- 1.0) A_1) S_0 L_1))))))
 (let ((?x2927 (* (- (/ 1.0 2.0)) S_0)))
 (let ((?x3011 (* (/ 1.0 2.0) S_1)))
 (let ((?x255 (* (- 1.0) L_2)))
 (let ((?x10606 (+ A_2 ?x255 L_3 ?x368 ?x3011 ?x2927)))
 (let (($x40934 (or $x71 (<= ?x10606 (- 5.0)) (<= (+ L_3 ?x368 (* 2.0 S_1) (* (- 1.0) S_0)) (- 5.0)))))
 (let (($x66835 (or $x71 (<= (+ (* (- 1.0) A_2) A_1) (- 5.0)) (not (<= (- 10.0) (+ (* (- 1.0) A_2) L_2 S_0))) $x37773)))
 (let (($x67273 (or $x71 (<= (- 5.0) (+ (* (- (/ 1.0 2.0)) A_2) (* (/ 1.0 2.0) L_2) (* (/ 1.0 2.0) S_0))) (<= (+ L_3 ?x368 S_0) (- 20.0)) $x38338)))
 (let (($x40829 (or $x71 (<= (+ L_3 ?x368 (* (/ 3.0 2.0) S_2) (* (- (/ 1.0 2.0)) S_1)) (- 5.0)))))
 (let (($x33486 (<= (+ L_3 ?x368 (* (- (/ 1.0 2.0)) A_0) (* (/ 3.0 2.0) S_2) (* (/ 1.0 2.0) L_0)) (- 5.0))))
 (let (($x33600 (<= (+ L_3 ?x368 (* (- 2.0) A_0) (* 3.0 S_1) (* 2.0 L_0)) (- 5.0))))
 (let (($x67458 (or $x71 $x33600 (<= (+ A_2 ?x255 L_3 ?x368 (* (- 1.0) A_0) S_1 L_0) (- 5.0)))))
 (let (($x40769 (or $x71 (<= (+ L_3 ?x368 (* (/ 4.0 3.0) S_2) (* (- (/ 1.0 3.0)) S_0)) (- 5.0)))))
 (let (($x39889 (<= (+ (* (/ 2.0 3.0) S_4) L_3 ?x368 (* (/ 1.0 3.0) A_1) (* (- (/ 1.0 3.0)) L_1)) (- 5.0))))
 (let (($x40625 (or $x71 (<= (+ (* (/ 3.0 4.0) S_4) L_3 ?x368 (* (/ 1.0 4.0) S_0)) (- 5.0)) $x37696 $x39889)))
 (let ((?x950 (* (- 2.0) L_1)))
 (let ((?x952 (* 2.0 A_1)))
 (let ((?x1051 (* 3.0 L_2)))
 (let ((?x1050 (* (- 3.0) A_2)))
 (let ((?x1393 (+ ?x1050 ?x1051 S_4 ?x952 ?x950)))
 (let (($x61 (= L_2 L_1)))
 (let (($x40604 (or $x61 (<= ?x1393 (- 15.0)) (<= (+ (* (- 1.0) A_2) L_2 ?x3786 (* (/ 1.0 2.0) S_0)) (- 5.0)))))
 (let ((?x2677 (* (- 2.0) A_3)))
 (let ((?x2516 (* 2.0 L_3)))
 (let ((?x2683 (* 2.0 S_4)))
 (let ((?x365 (* (- 1.0) A_2)))
 (let (($x40556 (or $x61 (<= (+ ?x365 L_2 S_4 L_3 ?x368 A_1 ?x238) (- 5.0)) (<= (+ ?x365 L_2 ?x2683 ?x2516 ?x2677 S_0) (- 5.0)))))
 (let (($x37255 (<= (+ A_2 ?x255 (* (- 1.0) S_4)) (- 5.0))))
 (let (($x1717 (<= (+ (* (- 1.0) S_4) (* (- 1.0) L_3) A_3) 0.0)))
 (let (($x40525 (or $x1717 (<= (+ (* (- (/ 1.0 2.0)) S_4) (* (/ 1.0 2.0) A_1) (* (- (/ 1.0 2.0)) L_1)) (- 5.0)) $x37255 (<= (+ (* (- 1.0) S_4) S_0) (- 15.0)))))
 (let (($x66550 (or $x61 (<= (+ (* (- 2.0) A_2) (* 2.0 L_2) S_3 S_1) (- 10.0)))))
 (let (($x15201 (<= (+ (* (- (/ 1.0 2.0)) A_2) (* (/ 1.0 2.0) L_2) ?x3786 (* (- 1.0) S_2) S_0) 0.0)))
 (let (($x3350 (<= (+ A_1 ?x238 (* (- 1.0) S_2)) 0.0)))
 (let ((?x363 (* (- 1.0) A_1)))
 (let ((?x2659 (* (/ 1.0 2.0) L_2)))
 (let ((?x3326 (* (- (/ 1.0 2.0)) A_2)))
 (let (($x51 (= L_1 L_0)))
 (let ((?x1065 (* (- 1.0) S_0)))
 (let ((?x2434 (* (- 3.0) A_3)))
 (let ((?x2353 (* 3.0 L_3)))
 (let ((?x1057 (* (- 3.0) L_2)))
 (let ((?x1056 (* 3.0 A_2)))
 (let ((?x337 (* (- 1.0) S_1)))
 (let ((?x6626 (* (- 4.0) A_3)))
 (let ((?x7393 (* 4.0 L_3)))
 (let ((?x1350 (* (- 4.0) L_2)))
 (let ((?x1156 (* 4.0 A_2)))
 (let ((?x12978 (* (- (/ 5.0 2.0)) L_1)))
 (let ((?x12939 (* (/ 5.0 2.0) A_1)))
 (let ((?x12969 (* (- (/ 5.0 2.0)) A_3)))
 (let ((?x12944 (* (/ 5.0 2.0) L_3)))
 (let (($x11972 (<= (+ S_4 ?x12944 ?x12969 ?x12939 ?x1065 ?x12978) 0.0)))
 (let (($x3356 (<= (+ A_2 ?x255 L_3 ?x368 A_1 (* (- 1.0) A_0) ?x238 L_0) 0.0)))
 (let ((?x343 (* (- 1.0) S_2)))
 (let ((?x1043 (* (- 2.0) L_2)))
 (let ((?x1042 (* 2.0 A_2)))
 (let (($x10000 (<= (+ ?x1042 ?x1043 ?x2516 ?x2677 ?x952 ?x343 ?x1065 ?x950) 0.0)))
 (let (($x6337 (<= (+ L_3 ?x368 A_1 S_1 ?x1065 ?x238) 0.0)))
 (let ((?x4730 (* (- (/ 1.0 2.0)) L_1)))
 (let ((?x4588 (* (/ 1.0 2.0) A_1)))
 (let ((?x6732 (* (- (/ 3.0 2.0)) A_3)))
 (let ((?x4606 (* (/ 3.0 2.0) L_3)))
 (let (($x67893 (or $x51 (<= (+ (* (/ 1.0 4.0) S_4) ?x363 (* (/ 3.0 4.0) S_0) L_1) (- 5.0)))))
 (let (($x37681 (<= (+ ?x1042 ?x1043 ?x2516 ?x2677 A_1 ?x1065 ?x238) (- 5.0))))
 (let (($x2692 (<= (+ S_3 ?x2516 ?x2677 ?x952 ?x1065 ?x950) 0.0)))
 (let (($x8768 (<= (+ ?x1042 ?x1043 (* (- 1.0) S_4) L_3 ?x368 A_1 ?x1065 ?x238) 0.0)))
 (let (($x12061 (<= (+ ?x4606 ?x6732 (* (/ 3.0 2.0) A_1) S_2 ?x1065 (* (- (/ 3.0 2.0)) L_1)) 0.0)))
 (let (($x10292 (<= (+ A_2 ?x255 (* (- 1.0) S_4) (* (- 1.0) A_0) S_1 L_0) 0.0)))
 (let (($x66546 (or $x1717 (<= (+ ?x365 L_2 (* (- 1.0) A_0) (* 2.0 S_1) L_0) 0.0) $x10292)))
 (let (($x40094 (or $x61 (<= (+ (* (- 2.0) A_2) (* 2.0 L_2) S_3 A_1 ?x238) (- 10.0)) (<= (+ ?x365 L_2 (* (/ 2.0 3.0) S_3) (* (/ 1.0 3.0) S_0)) (- 5.0)))))
 (let (($x33642 (<= (+ (* (- 2.0) A_2) (* 2.0 L_2) (* (- 1.0) L_3) A_3 S_1) (- 5.0))))
 (let (($x38474 (<= (+ S_3 (* (- 3.0) A_1) (* 2.0 S_0) (* 3.0 L_1)) (- 15.0))))
 (let (($x39829 (or $x1717 (<= (+ (* (- 1.0) S_4) (* 2.0 S_1) ?x1065) 0.0) (<= (+ A_2 ?x255 (* (- 1.0) S_4) ?x3011 ?x2927) 0.0))))
 (let (($x67386 (or $x61 $x3350 (<= (+ ?x365 L_2 (* (- 1.0) L_3) A_3 ?x343 S_0) 0.0))))
 (let (($x67544 (or $x71 (<= (+ A_2 ?x255 L_3 ?x368 (* (- 1.0) A_0) S_1 L_0) 0.0))))
 (let (($x68198 (or $x71 (<= (+ ?x1042 ?x1043 ?x2516 ?x2677 (* (- 1.0) A_0) S_2 L_0) 0.0))))
 (let (($x67827 (or $x71 (<= (+ ?x1056 ?x1057 S_3 ?x2353 ?x2434 (* (- 1.0) A_0) L_0) 0.0))))
 (let (($x23808 (or $x1717 (<= (+ (* (- 1.0) S_4) (* (/ 4.0 3.0) S_2) (* (- (/ 1.0 3.0)) S_0)) 0.0))))
 (let ((?x272 (* (- 1.0) L_3)))
 (let ((?x974 (* 2.0 L_2)))
 (let ((?x954 (* (- 2.0) A_2)))
 (let ((?x2596 (+ ?x954 ?x974 ?x272 A_3 A_1 ?x238)))
 (let (($x66807 (or $x61 (<= ?x2596 (- 5.0)) (<= (+ ?x1050 ?x1051 (* (- 2.0) L_3) (* 2.0 A_3) S_0) (- 5.0)))))
 (let ((?x4885 (* (/ 1.0 2.0) L_1)))
 (let ((?x4598 (* (- (/ 1.0 2.0)) A_1)))
 (let ((?x4169 (* (/ 1.0 2.0) A_3)))
 (let ((?x3148 (* (- (/ 1.0 2.0)) L_3)))
 (let ((?x357 (* (- 1.0) S_4)))
 (let (($x11260 (<= (+ ?x357 ?x3148 ?x4169 ?x4598 S_2 ?x4885) 0.0)))
 (let (($x3419 (<= (+ A_2 ?x255 L_3 ?x368 A_1 ?x238 ?x337) 0.0)))
 (let ((?x1053 (* (- 3.0) L_1)))
 (let ((?x2415 (* (- 2.0) S_1)))
 (let ((?x1052 (* 3.0 A_1)))
 (let ((?x2678 (* 2.0 S_3)))
 (let (($x12941 (<= (+ S_4 ?x4606 ?x6732 (* (/ 3.0 2.0) A_1) ?x343 (* (- (/ 3.0 2.0)) L_1)) 0.0)))
 (let (($x66179 (or $x71 (<= (+ ?x5120 ?x4127 ?x3786 L_3 ?x368 A_1 ?x343 ?x238) 0.0) $x12941)))
 (let (($x12980 (<= (+ ?x2683 ?x7393 ?x6626 (* 4.0 A_1) ?x2415 (* (- 4.0) L_1)) 0.0)))
 (let (($x66962 (or $x71 (<= (+ ?x1156 ?x1350 S_4 ?x7393 ?x6626 (* (- 1.0) A_0) L_0) 0.0))))
 (let ((?x1066 (* (- 4.0) L_1)))
 (let ((?x1064 (* 4.0 A_1)))
 (let ((?x1063 (* 4.0 L_2)))
 (let ((?x1062 (* (- 4.0) A_2)))
 (let (($x38645 (or $x51 $x71 (<= (+ (* (/ 1.0 2.0) L_3) (* (- (/ 1.0 2.0)) A_3) ?x4598 S_2 ?x4885) (- 5.0)))))
 (let (($x3860 (<= (+ (* (- (/ 1.0 2.0)) S_4) (* (- 1.0) A_0) (* (/ 3.0 2.0) S_1) L_0) 0.0)))
 (let (($x66781 (or $x1717 $x3860 (<= (+ ?x1056 ?x1057 (* (- 2.0) S_4) (* (- 1.0) A_0) L_0) 0.0))))
 (let (($x16680 (<= (+ ?x1050 ?x1051 ?x357 (* (- 3.0) L_3) (* 3.0 A_3) S_0) 0.0)))
 (let (($x3351 (<= (+ ?x954 ?x974 ?x357 (* (- 2.0) L_3) (* 2.0 A_3) A_1 ?x238) 0.0)))
 (let (($x67974 (or $x51 (<= (+ ?x3148 ?x4169 (* (- (/ 3.0 2.0)) A_1) S_0 (* (/ 3.0 2.0) L_1)) (- 5.0)))))
 (let (($x2705 (<= (+ ?x2678 ?x2353 ?x2434 ?x1052 (* (- 2.0) A_0) ?x1053 (* 2.0 L_0)) 0.0)))
 (let ((?x1726 (* 2.0 L_0)))
 (let ((?x3830 (* 2.0 S_1)))
 (let ((?x2703 (* (- 2.0) A_0)))
 (let (($x1987 (<= (+ ?x1042 ?x1043 ?x357 (* (- 2.0) A_1) S_1 (* 2.0 L_1)) 0.0)))
 (let ((?x17643 (* (- 5.0) A_3)))
 (let ((?x17649 (* 5.0 L_3)))
 (let ((?x17627 (* (- 5.0) L_2)))
 (let ((?x17663 (* 5.0 A_2)))
 (let (($x67133 (or $x61 (<= (+ ?x1062 ?x1063 S_4 ?x1064 (* (- 1.0) A_0) ?x1066 L_0) 0.0))))
 (let (($x67115 (or $x61 (<= (+ ?x1050 ?x1051 S_3 ?x1052 (* (- 1.0) A_0) ?x1053 L_0) 0.0))))
 (let ((?x1390 (* (- 5.0) L_1)))
 (let ((?x1349 (* 5.0 A_1)))
 (let ((?x1370 (* 5.0 L_2)))
 (let ((?x1347 (* (- 5.0) A_2)))
 (let (($x47769 (or $x71 (<= (+ ?x2516 ?x2677 ?x952 ?x2703 (* 2.0 S_2) ?x950 ?x1726) 0.0))))
 (let (($x4362 (<= (+ ?x357 (* (- (/ 1.0 2.0)) A_0) (* (/ 3.0 2.0) S_2) (* (/ 1.0 2.0) L_0)) 0.0)))
 (let (($x66074 (or $x3350 (not (<= 0.0 (+ (* (/ 1.0 3.0) S_3) ?x363 (* (/ 2.0 3.0) S_0) L_1))))))
 (let (($x37161 (<= 0.0 (+ (* (/ 1.0 3.0) S_3) ?x363 (* (/ 2.0 3.0) S_0) L_1))))
 (let ((?x4705 (* (/ 3.0 2.0) L_1)))
 (let ((?x3965 (* (- (/ 3.0 2.0)) A_1)))
 (let (($x7269 (<= (+ ?x357 (* (- (/ 3.0 2.0)) L_3) (* (/ 3.0 2.0) A_3) ?x3965 S_0 ?x4705) 0.0)))
 (let (($x36678 (or $x51 (<= (+ ?x363 (* (/ 1.0 2.0) S_2) (* (/ 1.0 2.0) S_0) L_1) (- 5.0)))))
 (let (($x2638 (<= (+ ?x954 ?x974 ?x357 (* (- 2.0) L_3) (* 2.0 A_3) S_1) 0.0)))
 (let (($x36221 (not (<= 0.0 (+ ?x255 L_1)))))
 (let (($x68525 (or $x61 (<= (+ ?x954 ?x974 ?x952 (* (- 1.0) A_0) S_2 ?x950 L_0) 0.0))))
 (let (($x33874 (<= 0.0 (+ ?x1056 ?x1057 L_3 ?x368 (* (- 3.0) A_1) S_0 (* 3.0 L_1)))))
 (let (($x2043 (<= (+ ?x1056 ?x1057 ?x357 (* (- 3.0) A_1) S_0 (* 3.0 L_1)) 0.0)))
 (let (($x67068 (or $x51 (<= (+ A_2 ?x255 (* (- 2.0) A_1) S_0 (* 2.0 L_1)) (- 5.0)))))
 (let (($x66157 (or $x61 (<= (+ ?x365 L_2 A_1 (* (- 1.0) A_0) S_1 ?x238 L_0) 0.0))))
 (let (($x117 (>= S_4 S_3)))
 (let (($x108 (>= S_1 S_0)))
 (let (($x111 (>= S_2 S_1)))
 (let (($x119 (>= A_1 A_0)))
 (let (($x120 (>= A_2 A_1)))
 (let (($x122 (>= A_4 A_3)))
 (and (not (<= (+ A_3 ?x272) S_3)) (<= (+ A_2 ?x255) S_3) $x122 $x120 $x119 $x111 $x108 $x117 (or $x51 (not (<= 0.0 (+ ?x238 L_0)))) (or $x51 $x61 $x71 (= (+ ?x1042 ?x1043 L_3 ?x368 ?x363 L_1) 0.0)) (or $x61 (<= 0.0 (+ ?x1042 ?x255 ?x368 ?x363 L_1)) (not $x71)) (or $x61 (<= (+ ?x365 L_2 S_2) (- 5.0))) (or $x61 (<= (+ ?x1050 ?x1051 ?x1052 S_2 ?x1065 ?x1053) 0.0)) (or $x61 (<= ?x1393 (- 5.0))) (or $x51 (<= (+ ?x363 S_1 L_1) (- 5.0))) $x66157 $x67068 (or $x61 $x36221) (or $x61 (<= (+ ?x954 ?x974 ?x952 S_1 ?x1065 ?x950) 0.0)) (or $x71 (<= (+ S_3 L_3 ?x368) (- 5.0))) (or $x51 (<= (+ A_2 ?x255 ?x363 ?x343 S_0 L_1) 0.0)) (or $x51 $x2043 $x33874) (or $x51 $x1717 (not $x33874)) $x68525 (or $x61 (<= (+ ?x954 ?x974 ?x952 S_2 ?x337 ?x950) 0.0)) (or $x51 $x71 (<= (+ ?x1042 L_3 ?x368 ?x363 ?x238) 0.0) $x36221) (or $x61 (<= (+ ?x365 L_2 ?x357 ?x272 A_3 S_2) 0.0)) (or $x61 $x2638) (or $x71 (not (<= 0.0 (+ L_2 ?x272)))) (or $x61 (<= (+ ?x365 L_2 (* (- 1.0) A_0) ?x3830 L_0) (- 5.0))) $x36678 (<= (+ ?x365 L_2 S_2) 0.0) (or $x71 (<= (+ ?x1042 ?x1043 S_3 ?x2516 ?x2677 ?x363 L_1) 0.0)) (or $x51 $x7269) (or $x71 (<= (+ S_3 L_3 ?x368 A_1 ?x343 ?x238) 0.0)) (or $x37161 (<= (+ (* (/ 1.0 3.0) S_3) ?x343 (* (/ 2.0 3.0) S_0)) 0.0)) $x66074 (or $x3350 (<= (+ ?x343 S_0) (- 5.0))) (or $x1717 (<= (+ ?x357 S_2) (- 5.0))) (or $x1717 $x4362) (or $x51 (<= (+ ?x357 ?x272 A_3 ?x363 S_1 L_1) 0.0)) (or $x51 (<= (+ ?x365 L_2 ?x272 A_3 ?x363 S_0 L_1) 0.0)) (or $x71 $x3356 (<= (+ ?x2683 ?x7393 ?x6626 ?x1064 ?x2703 ?x1066 ?x1726) 0.0)) $x47769 (or $x61 (<= (+ ?x365 L_2 S_4 L_3 ?x368 A_1 ?x238) 0.0)) (or $x3350 (<= (+ S_4 L_3 ?x368 ?x343 S_0) 0.0)) (or $x61 (<= (+ ?x954 ?x974 S_3 A_1 ?x238) (- 5.0))) (or $x61 (<= (+ ?x1050 ?x1051 S_4 ?x3830) (- 15.0))) (or $x1717 (<= (+ (* (- (/ 1.0 2.0)) S_4) ?x3011) (- 5.0)) $x37255) (or $x51 (<= (+ A_2 ?x255 ?x357 ?x363 S_2 L_1) 0.0) $x1717) (or $x61 (<= (+ ?x1062 ?x1063 S_3 ?x1064 ?x1065 ?x1066) 0.0)) (or $x61 (<= ?x2596 0.0)) (or $x61 (<= (+ ?x1347 ?x1370 S_4 ?x1349 ?x1065 ?x1390) 0.0)) $x67115 $x67133 (or $x71 (<= (+ ?x17663 ?x17627 S_4 ?x17649 ?x17643 ?x1065) 0.0)) (or $x51 $x1717 $x1987) (or $x71 $x3356 (<= (+ L_3 ?x368 A_1 ?x2703 ?x3830 ?x238 ?x1726) 0.0)) (or $x71 $x2705 $x3356) $x67974 (or $x61 $x3351 $x16680) (or $x51 $x1717 (<= (+ ?x357 ?x363 (* 2.0 S_2) L_1) (- 5.0))) $x66781 (or $x1717 (<= (+ (* (- (/ 1.0 2.0)) S_4) ?x4598 ?x4885 S_2) 0.0)) $x38645 (or $x71 (<= (+ L_3 ?x368 ?x363 L_1 (* 2.0 S_2)) (- 5.0))) (or $x51 $x11260 (<= 0.0 (+ L_2 ?x272))) (or $x1717 (<= (+ (* (- 2.0) S_4) (* 3.0 S_2) ?x337) 0.0)) (or $x3350 (<= (+ (* (/ 1.0 4.0) S_4) ?x343 (* (/ 3.0 4.0) S_0)) 0.0)) (or $x61 (<= (+ ?x1050 ?x1051 S_4 ?x1052 ?x343 ?x1053) 0.0)) (or $x61 (<= (+ ?x1050 ?x1051 S_3 ?x1052 ?x337 ?x1053) 0.0)) (or $x61 (<= (+ ?x954 ?x974 S_3 ?x952 ?x343 ?x950) 0.0)) (or $x61 (<= (+ ?x1062 ?x1063 S_4 ?x1064 ?x337 ?x1066) 0.0)) $x66962 (or $x61 (<= (+ ?x954 ?x974 (* 3.0 S_1) ?x1065) (- 10.0))) (or $x51 (<= (+ ?x363 S_0 L_1) (- 10.0))) (or $x71 $x10000 $x11972) (or $x71 $x12061 $x37681) (or $x71 $x11972 $x37681) (or $x71 $x3419 $x12061) (or $x71 (<= (+ ?x2516 ?x2677 ?x952 (* 2.0 S_2) ?x2415 ?x950) 0.0)) (or $x71 $x3419 $x11972) (or $x71 $x3419 $x12980) $x66179 (or $x51 (<= (+ ?x3148 ?x4169 ?x4598 ?x343 S_0 ?x4885) 0.0)) (or $x71 $x2692 $x3419) (or $x71 (<= (+ ?x2678 ?x2353 ?x2434 ?x1052 ?x2415 ?x1053) 0.0) $x3419) (or $x51 $x1717 $x11260) (or $x71 (<= (+ ?x1042 ?x1043 ?x2516 ?x2677 S_2 ?x337) 0.0)) (or $x71 (<= (+ A_2 ?x255 L_3 ?x368 ?x363 L_1 S_2) 0.0)) $x66807 $x23808 (or $x71 $x8768 $x12061) (or $x71 (<= (+ A_2 ?x255 S_4 ?x2516 ?x2677) (- 5.0))) (or $x71 (<= (+ ?x1056 ?x1057 S_4 ?x2353 ?x2434 ?x363 L_1) 0.0)) $x67827 $x68198 $x67544 (or $x71 (<= (+ ?x1056 ?x1057 S_3 ?x2353 ?x2434 ?x337) 0.0)) $x67386 $x39829 (or $x3350 (<= (+ ?x365 L_2 S_3 ?x343 S_0) 0.0)) (or $x51 (<= (+ ?x365 L_2 S_3 ?x363 S_0 L_1) (- 5.0))) (or $x51 $x38474) (or $x61 $x33642) (or $x71 (<= (+ ?x1056 ?x1057 S_4 ?x2353 ?x2434 ?x343) 0.0)) (or $x71 (<= (+ ?x1042 ?x1043 S_3 ?x2516 ?x2677 ?x343) 0.0)) (or $x51 (<= (+ S_4 L_3 ?x368 ?x363 S_0 L_1) (- 5.0))) $x40094 $x66546 (or $x71 (<= ?x10606 0.0)) (or $x71 (<= (+ ?x1156 ?x1350 S_3 ?x7393 ?x6626 ?x1065) 0.0)) (or $x71 $x6337 $x8768) (or $x71 $x3356 $x6337) (or $x71 (<= (+ L_3 ?x368 S_2) (- 10.0))) (or $x71 (<= (+ S_4 ?x2516 ?x2677 S_2) (- 10.0))) (or $x71 $x3356 $x12061) (or $x71 $x2692 $x8768) (or $x71 $x2692 $x3356) (or $x71 $x2692 $x37681) (or $x71 $x6337 $x37681) $x67893 (or $x71 (<= (+ S_4 ?x4606 ?x6732 ?x4588 ?x4730) (- 5.0)) $x37696) (or $x71 $x2692 $x10000) (or $x71 $x6337 $x10000) (or $x71 $x3356 $x11972) (or $x71 (<= ?x2686 (- 10.0))) (or $x71 (<= (+ ?x1156 ?x1350 S_4 ?x7393 ?x6626 ?x337) 0.0)) (or $x71 (<= (+ ?x1056 ?x1057 ?x2353 ?x2434 S_2 ?x1065) 0.0)) (or $x51 (<= (+ ?x3326 ?x2659 ?x3786 ?x363 S_0 L_1) (- 5.0))) (or $x3350 $x15201) $x66550 $x40525 (or $x61 (<= (+ ?x365 L_2 S_4 L_3 ?x368 S_1) (- 5.0))) $x40556 $x40604 $x40625 $x40769 $x67458 (or $x71 $x33486) $x40829 $x67273 $x66835 (or $x71 $x37773 (<= (+ L_3 ?x368 S_1) (- 15.0))) $x40934 $x67492 (or $x71 $x37696 $x40839) $x34 (<= (+ (* (- 1.0) A_0) S_0 L_0) 0.0) (<= (+ S_4 L_3 (* (- 1.0) A_4)) 0.0) (<= (+ ?x363 S_1 L_1) 0.0)))))))))))))))))))))))))))))))))))))))))))))))))))))))))))))))))))))))))))))))))))))))))))))))))))))))))))))))))))))))))))))))))))))))))))))))))))))))))))))))
(check-sat)
